28408.79,45.98,50.63
32914.38,39.69,43.7
29721.11,43.95,48.4
26020.91,50.2,55.28
30147.29,43.33,47.71
28362.71,46.05,50.72
28749.23,45.43,50.03
31069.06,42.04,46.3
27508.74,47.48,52.29
27183.3,48.05,52.92
29332.66,44.53,49.04
32992.55,39.59,43.6
30425.22,42.93,47.28
27618.75,47.29,52.08
28140.64,46.42,51.12
29501.8,44.27,48.76
29454.81,44.35,48.84
30395.89,42.97,47.32
36307.42,35.98,39.62
30003.34,43.53,47.94
